treewidth/data/T2starGeneralizedQuadrangleGraph_4.gr
p tw 64 576
1 2
1 46
1 4
1 11
1 14
1 19
1 23
1 26
1 29
1 32
1 34
1 36
1 37
1 38
1 43
1 50
1 53
1 55
2 13
2 63
2 6
2 19
2 20
2 21
2 27
2 28
2 40
2 41
2 42
2 45
2 49
2 52
2 54
2 55
2 59
13 35
13 57
13 6
13 8
13 22
13 23
13 29
13 30
13 31
13 32
13 38
13 43
13 44
13 56
13 58
13 59
13 61
24 35
24 63
24 8
24 17
24 18
24 19
24 26
24 27
24 28
24 29
24 32
24 37
24 39
24 40
24 47
24 53
24 58
24 59
35 46
35 3
35 4
35 9
35 10
35 12
35 20
35 28
35 31
35 34
35 37
35 38
35 45
35 48
35 52
35 55
46 64
46 3
46 15
46 18
46 21
46 22
46 30
46 33
46 39
46 40
46 41
46 43
46 45
46 53
46 56
46 59
57 3
57 4
57 7
57 8
57 16
57 18
57 26
57 27
57 33
57 34
57 37
57 40
57 41
57 43
57 49
57 55
57 60
62 64
62 4
62 6
62 7
62 20
62 25
62 26
62 28
62 29
62 31
62 36
62 39
62 40
62 43
62 45
62 55
62 56
62 58
63 64
63 3
63 4
63 5
63 12
63 16
63 18
63 20
63 22
63 29
63 36
63 38
63 41
63 43
63 51
63 61
64 8
64 10
64 11
64 16
64 32
64 33
64 37
64 38
64 44
64 49
64 52
64 54
64 55
64 58
64 59
3 6
3 11
3 14
3 17
3 19
3 25
3 26
3 36
3 42
3 44
3 45
3 49
3 58
3 61
4 5
4 6
4 9
4 14
4 21
4 22
4 27
4 32
4 33
4 39
4 44
4 47
4 52
5 8
5 17
5 22
5 25
5 30
5 31
5 34
5 37
5 42
5 45
5 49
5 50
5 53
5 55
5 56
5 59
6 10
6 11
6 15
6 16
6 17
6 18
6 37
6 39
6 48
6 50
6 51
6 53
6 59
7 10
7 12
7 14
7 17
7 19
7 21
7 22
7 29
7 37
7 38
7 41
7 45
7 52
7 53
7 59
7 61
8 11
8 14
8 15
8 19
8 20
8 21
8 36
8 39
8 43
8 45
8 48
8 50
8 52
9 15
9 16
9 17
9 19
9 29
9 36
9 41
9 43
9 49
9 50
9 52
9 54
9 56
9 58
9 59
9 60
10 18
10 19
10 20
10 22
10 27
10 30
10 32
10 34
10 36
10 42
10 43
10 47
10 49
10 50
11 12
11 17
11 22
11 27
11 28
11 29
11 31
11 34
11 41
11 47
11 52
11 56
11 60
12 14
12 23
12 27
12 39
12 40
12 43
12 44
12 48
12 49
12 50
12 51
12 55
12 56
12 59
14 15
14 16
14 18
14 20
14 28
14 30
14 31
14 32
14 42
14 54
14 58
14 59
15 20
15 22
15 25
15 27
15 29
15 37
15 38
15 40
15 47
15 49
15 51
15 55
15 61
16 19
16 23
16 28
16 30
16 34
16 38
16 40
16 45
16 47
16 48
16 53
16 56
17 20
17 21
17 23
17 30
17 32
17 33
17 38
17 40
17 43
17 54
17 55
18 21
18 23
18 25
18 29
18 31
18 50
18 52
18 54
18 55
18 56
18 60
19 22
19 25
19 31
19 33
19 39
19 44
19 51
19 55
19 56
20 23
20 26
20 33
20 34
20 41
20 44
20 53
20 56
20 60
21 28
21 34
21 36
21 38
21 44
21 47
21 48
21 49
21 51
21 56
21 58
22 23
22 26
22 28
22 40
22 48
22 54
22 58
22 60
23 25
23 33
23 36
23 37
23 39
23 45
23 47
23 49
23 52
23 58
25 27
25 28
25 32
25 34
25 38
25 41
25 43
25 44
25 48
25 52
25 59
26 30
26 38
26 47
26 48
26 49
26 50
26 51
26 52
26 54
26 56
26 59
27 30
27 33
27 36
27 38
27 45
27 53
27 54
27 56
27 58
28 30
28 33
28 37
28 43
28 49
28 50
28 60
28 61
29 30
29 33
29 34
29 42
29 44
29 45
29 48
29 49
30 36
30 39
30 41
30 44
30 51
30 52
30 55
31 33
31 36
31 38
31 40
31 41
31 47
31 49
31 51
31 53
31 54
32 40
32 41
32 45
32 48
32 49
32 51
32 56
32 60
32 61
33 42
33 48
33 50
33 51
33 59
33 61
34 39
34 40
34 51
34 54
34 58
34 59
34 61
36 37
36 40
36 48
36 59
36 60
36 61
37 41
37 42
37 44
37 51
37 54
37 56
38 39
38 42
38 50
38 60
39 41
39 42
39 49
39 54
39 60
39 61
40 42
40 44
40 50
40 52
41 47
41 48
41 50
41 58
42 43
42 47
42 48
42 52
42 56
42 58
42 60
43 47
43 51
43 53
43 54
44 47
44 50
44 53
44 54
44 60
45 47
45 50
45 51
45 54
45 60
47 55
47 59
47 61
48 53
48 54
48 55
49 53
50 58
50 61
51 52
51 58
51 60
52 53
52 61
53 58
53 60
53 61
54 61
55 58
55 60
55 61
56 61
59 60
