treewidth/data/T2starGeneralizedQuadrangleGraph_4.td
c width = 46, time = 601.834067
s td 9 47 64
b 1 4 6 8 9 10 11 12 16 18 19 20 22 23 24 28 30 32 33 34 36 37 38 39 41 42 44 45 46 49 51 52 53 54 55 57 58 59 60 61 62 63 64
b 2 1 4 6 8 9 10 11 12 13 15 16 17 18 19 20 21 22 23 24 25 26 28 30 31 32 33 34 36 37 38 41 42 44 45 46 49 51 52 53 54 55 57 58 59 61 62 63
b 3 1 4 6 8 9 10 11 12 13 15 16 17 18 19 20 21 22 24 25 26 28 30 31 32 33 34 36 37 38 40 41 42 44 45 46 49 52 53 54 55 56 57 58 59 61 62 63
b 4 1 2 4 6 10 11 12 13 15 19 20 21 24 25 27 28 30 33 36 38 40 41 42 45 49 52 53 54 55 56 57 58 59 63
b 5 1 4 5 6 8 9 10 12 17 18 22 25 26 28 30 31 33 34 37 38 40 41 42 44 45 49 50 53 55 56 58 59 61 63
b 6 1 4 6 8 9 10 11 12 13 15 16 17 18 19 20 21 22 24 25 26 28 29 30 31 32 33 34 35 36 37 38 41 42 44 45 46 49 52 53 54 55 57 58 59 61 62 63
b 7 1 3 4 6 7 8 10 11 12 14 15 16 17 18 19 20 21 22 25 26 28 29 30 31 32 35 36 37 38 41 42 44 45 46 49 52 53 54 57 58 59 61 62 63
b 8 6 8 12 16 21 22 25 26 29 32 33 35 36 41 42 48 53 54 55
b 9 1 4 8 9 10 11 12 13 15 16 17 21 23 24 25 26 28 31 41 42 43 44 45 46 47 51 53 54 55 57 59 61 62 63
3 4
3 5
2 3
6 7
6 8
2 6
2 9
1 2
